CH3PbI3 tetragonal                      
   1.00000000000000     
     8.8009004592999993    0.0000000000000000    0.0000000000000000
     0.0000000000000000    8.8009004592999993    0.0000000000000000
     0.0000000000000000    0.0000000000000000   12.6857004165999996
   H    Pb   C    I    N 
    24     4     4    12     4
Direct
  0.4990984343607094  0.9950349453653868  0.8399383986727380
  0.5263926357756898  0.8605624019568610  0.7349212904900874
  0.3735580543033416  0.9954466944827914  0.7283185130892402
  0.5893222418962660  0.0705135164577575  0.6193714193855772
  0.5595816639974288  0.1978613484926059  0.7153719885080382
  0.7048952533321827  0.0741794747939540  0.7233730778216079
  0.0000043365688223  0.5181353123046587  0.6297043030061783
  0.9911906967188608  0.6746855290356489  0.7202956756412942
  0.8423746008501547  0.5357721987823953  0.7188430959488986
  0.0152616922355788  0.4954807853346746  0.8642876006408446
  0.0271798285430155  0.3473914987125439  0.7808995485296647
  0.1649119627356859  0.4775197799142837  0.7826295519583318
  0.4818646276953362 -0.0000044255688196  0.1297042430061728
  0.4642277712176032  0.1576254131498458  0.2188431259489006
  0.3253144109643536  0.0088093272811343  0.2202957206412933
  0.5045191546653285  0.9847382887644166  0.3642875116408468
  0.5224801300857157  0.8350881422643124  0.2826295519583311
  0.6526084412874591  0.9728201534569837  0.2808995485296648
  0.0049651966346106  0.5009016246392922  0.3399384286727326
  0.0045533215172030  0.6264419746966569  0.2283184390892408
  0.1394375830431410  0.4736072752243130  0.2349212164900797
  0.9294864835422419  0.4106777291037351  0.1193713303855802
  0.9258205212060454  0.2951046576678211  0.2233730778216085
  0.8021386515073932  0.4404183660025671  0.2153720035080359
  0.0008777241210092  0.9830108889960801  0.9895841550155833
  0.4989056084984823  0.4911432937633994  0.9903664910829011
  0.0169891010039191  0.9991222758789904  0.4895841550155833
  0.5088567062366010  0.5010944215015199  0.4903664910829016
  0.4456639457753046  0.0355034665482089  0.2084413506441556
  0.4904021889203398  0.9761677367262683  0.7549098141582199
  0.0238323332737304  0.5095978110796606  0.2549098441582153
  0.9644965484517891  0.5543360542246953  0.7084413506441559
  0.2052694204867643  0.2820110598126824  0.0201820394020692
  0.7060715059974545  0.1954244537881549  0.9817519343821961
  0.2909891083757857  0.7794202979999877 -0.0217218958084095
  0.8154917583935100  0.6714006731159021  0.9757977574551822
  0.3285992968841028  0.1845082416064902  0.4757977284551839
  0.2205797170000165  0.7090108616242198  0.4782780821915955
  0.8045755762118469  0.2939284640025500  0.4817519043822017
  0.7179889101873232  0.7947305945132401  0.5201820174020676
  0.9479499421924099 -0.0085503349143144  0.2409079223137761
  0.5282241664936604  0.5399843509254567  0.2407996906330422
  0.0085503079143155  0.0520500538075891  0.7409079223137761
  0.4600156190745403  0.4717758335063391  0.7407996766330408
  0.5367353554946996  0.9520608153847335  0.2889057541897532
  0.5922449195438898  0.0861607218309125  0.7001208028390350
  0.9138392561690851  0.4077550804561097  0.2001207878390373
  0.0479392596152622  0.4632646445053005  0.7889057541897531
 
  0.00000000E+00  0.00000000E+00  0.00000000E+00
  0.00000000E+00  0.00000000E+00  0.00000000E+00
  0.00000000E+00  0.00000000E+00  0.00000000E+00
  0.00000000E+00  0.00000000E+00  0.00000000E+00
  0.00000000E+00  0.00000000E+00  0.00000000E+00
  0.00000000E+00  0.00000000E+00  0.00000000E+00
  0.00000000E+00  0.00000000E+00  0.00000000E+00
  0.00000000E+00  0.00000000E+00  0.00000000E+00
  0.00000000E+00  0.00000000E+00  0.00000000E+00
  0.00000000E+00  0.00000000E+00  0.00000000E+00
  0.00000000E+00  0.00000000E+00  0.00000000E+00
  0.00000000E+00  0.00000000E+00  0.00000000E+00
  0.00000000E+00  0.00000000E+00  0.00000000E+00
  0.00000000E+00  0.00000000E+00  0.00000000E+00
  0.00000000E+00  0.00000000E+00  0.00000000E+00
  0.00000000E+00  0.00000000E+00  0.00000000E+00
  0.00000000E+00  0.00000000E+00  0.00000000E+00
  0.00000000E+00  0.00000000E+00  0.00000000E+00
  0.00000000E+00  0.00000000E+00  0.00000000E+00
  0.00000000E+00  0.00000000E+00  0.00000000E+00
  0.00000000E+00  0.00000000E+00  0.00000000E+00
  0.00000000E+00  0.00000000E+00  0.00000000E+00
  0.00000000E+00  0.00000000E+00  0.00000000E+00
  0.00000000E+00  0.00000000E+00  0.00000000E+00
  0.00000000E+00  0.00000000E+00  0.00000000E+00
  0.00000000E+00  0.00000000E+00  0.00000000E+00
  0.00000000E+00  0.00000000E+00  0.00000000E+00
  0.00000000E+00  0.00000000E+00  0.00000000E+00
  0.00000000E+00  0.00000000E+00  0.00000000E+00
  0.00000000E+00  0.00000000E+00  0.00000000E+00
  0.00000000E+00  0.00000000E+00  0.00000000E+00
  0.00000000E+00  0.00000000E+00  0.00000000E+00
  0.00000000E+00  0.00000000E+00  0.00000000E+00
  0.00000000E+00  0.00000000E+00  0.00000000E+00
  0.00000000E+00  0.00000000E+00  0.00000000E+00
  0.00000000E+00  0.00000000E+00  0.00000000E+00
  0.00000000E+00  0.00000000E+00  0.00000000E+00
  0.00000000E+00  0.00000000E+00  0.00000000E+00
  0.00000000E+00  0.00000000E+00  0.00000000E+00
  0.00000000E+00  0.00000000E+00  0.00000000E+00
  0.00000000E+00  0.00000000E+00  0.00000000E+00
  0.00000000E+00  0.00000000E+00  0.00000000E+00
  0.00000000E+00  0.00000000E+00  0.00000000E+00
  0.00000000E+00  0.00000000E+00  0.00000000E+00
  0.00000000E+00  0.00000000E+00  0.00000000E+00
  0.00000000E+00  0.00000000E+00  0.00000000E+00
  0.00000000E+00  0.00000000E+00  0.00000000E+00
  0.00000000E+00  0.00000000E+00  0.00000000E+00
