&inputpp
  prefix = 'x0',
  outdir = './',
  pseudo_dir = '/home/rcf-proj2/op/wl_903/pp/',
  psfile(1) = 'H.rel-pbe-rrkjus_psl.0.1.UPF',
  psfile(2) = 'Pb.rel-pbe-dn-rrkjus_psl.0.2.2.UPF',
  psfile(3) = 'C.rel-pbe-n-rrkjus_psl.0.1.UPF',
  psfile(4) = 'I.rel-pbe-n-rrkjus_psl.0.2.2.UPF',
  psfile(5) = 'N.rel-pbe-n-rrkjus_psl.0.1.UPF',
  single_file = .FALSE.,
  ascii = .TRUE.,
  uspp_spsi = .FALSE.,
/
