&CONTROL
  calculation = 'nscf',
  pseudo_dir = '/home/weili/MAPbI3-tetra-bulk-fix-expt-DOS-QE/pseudo',
  outdir = './',
  prefix = 'x0',
  disk_io = 'low',
  wf_collect = .true.
/

&SYSTEM
  ibrav = 0,
  celldm(1) = 1.8897,
  nat = 48,
  ntyp = 5,
!  nspin = 1,
!  nbnd = 20,
  ecutwfc = 40.D0,
  ecutrho   = 300.D0,
!  tot_charge = 0.0,
!  lspinorb=.true.
!   noncolin=.true.
  occupations = 'tetrahedra',
!  smearing = 'gaussian',
!  degauss = 0.005,
  nosym = .true.,
/

&ELECTRONS
  electron_maxstep = 300,
  conv_thr = 1.D-5,
  mixing_beta = 0.45,
/

&IONS
  ion_dynamics = 'verlet',
  ion_temperature = 'andersen',
  tempw = 300.00 ,
  nraise = 1,
/


ATOMIC_SPECIES
 H  1.008               H.pbe-rrkjus_psl.0.1.UPF
Pb    207.1999969482    Pb.pbe-dn-rrkjus_psl.0.2.2.UPF 
 C  12.01               C.pbe-n-rrkjus_psl.0.1.UPF 
I    126.9039993286     I.pbe-n-rrkjus_psl.0.2.UPF 
 N     14.0069999695    N.pbe-n-rrkjus_psl.0.1.UPF


K_POINTS automatic
9 9 9 0 0 0

CELL_PARAMETERS alat
      8.80090046        0.00000000        0.00000000
      0.00000000        8.80090046        0.00000000
      0.00000000        0.00000000       12.68570042

ATOMIC_POSITIONS angstrom
H         4.39251564        8.75720351       10.65520689
H         4.63272919        7.57372404        9.32299132
H         3.28764725        8.76082727        9.23923046
H         5.18656639        0.62058244        7.85716027
H         4.92482252        1.74135803        9.07499473
H         6.20371296        0.65284617        9.17649415
H         0.00003817        4.56005731        7.98824014
H         8.72337066        5.93784018        9.13745515
H         7.41365501        4.71527779        9.11902816
H         0.13431663        4.36067707       10.96409358
H         0.23920697        3.05735800        9.90625773
H         1.45137377        4.20260405        9.92820403
H         4.24084262       -0.00003895        1.64538917
H         4.08562240        1.38724557        2.77617833
H         2.86305975        0.07753001        2.79460552
H         4.44022286        8.66658366        4.62124224
H         4.59829562        7.34952761        3.58535383
H         5.74354193        8.56169334        3.56340752
H         0.04369820        4.40838534        4.31235707
H         0.04007333        5.51325346        2.89637932
H         1.22717629        4.16817049        2.98014017
H         8.18031802        3.61433381        1.51430894
H         8.14805425        2.59718672        2.83364395
H         7.05954243        3.87607820        2.73214471
Pb        0.00772476        8.65138098       12.55356813
Pb        4.39081860        4.32250324       12.56349261
Pb        0.14951939        8.79317570        6.21071792
Pb        4.47839722        4.41008212        6.22064240
C         3.92224403        0.31246248        2.64422453
C         4.31598085        8.59115508        9.57655974
C         0.20974599        4.48491961        3.23370992
C         8.48843812        4.87865643        8.98707474
I         1.80655574        2.48195127        0.25602331
I         6.21406504        1.71991117       12.45421092
I         2.56096618        6.85960046       -0.27555746
I         7.17706179        5.90893049       12.37867802
I         2.89196970        1.62383867        6.03582744
I         1.94130013        6.23993402        6.06729247
I         7.08098956        2.58683515        6.11136033
I         6.31894893        6.99434485        6.59887323
I         8.34281308       -0.07525065        3.05608573
I         4.64884831        4.75234852        3.05471274
I         0.07525041        0.45808734        9.39893594
I         4.04855167        4.15205215        9.39756277
N         4.72375444        8.37899247        3.66497185
N         5.21228858        0.75829194        8.88152276
N         8.04260833        3.58861187        2.53867236
N         0.42190865        4.07714602       10.00782205
