IBRION=0
ALGO=Normal
SMASS=-3
NSIM=4
NELMDL=-2
TEBEG=300
TEEND=300
ISIF=2
LREAL=A
PREC=Accurate
ISMEAR=0
ISYM=0
POTIM=1.0
NSW=3000
EDIFF=0.00001
ENCUT=500
LWAVE=F
LCHARG=F
