SYSTEM = heatin
IBRION = 0
ALGO = Fast
SMASS = -1
NBLOCK = 4
ENCUT = 500
TEBEG = 300
TEEND = 300
ISIF = 2
LREAL = A
ISMEAR = 0
ISYM = 0
PREC = Low
NSW = 2000
POTIM = 1.0
EDIFF = 0.00001
GGA = PE
LWAVE = .FALSE.
LCHARG = .FALSE.

