CH3PbI3 tetragonal                      
   1.00000000000000     
     8.8009004592999993    0.0000000000000000    0.0000000000000000
     0.0000000000000000    8.8009004592999993    0.0000000000000000
     0.0000000000000000    0.0000000000000000   12.6857004165999996
   H    Pb   C    I    N 
    24     4     4    12     4
Direct
  0.4990980030000003  0.9950349929999973  0.8399379849999988
  0.5263929959999984  0.8605620270000003  0.7349209790000018
  0.3735580150000004  0.9954469799999970  0.7283189890000017
  0.5893219709999968  0.0705140009999994  0.6193709969999972
  0.5595819950000021  0.1978610009999997  0.7153720259999972
  0.7048950200000021  0.0741790009999974  0.7233729960000019
  0.0000039999999970  0.5181350109999983  0.6297039990000002
  0.9911910300000031  0.6746860149999989  0.7202960250000032
  0.8423749800000024  0.5357720259999965  0.7188429830000018
  0.0152619999999999  0.4954810139999992  0.8642879719999996
  0.0271799989999977  0.3473910089999990  0.7809000020000028
  0.1649120000000011  0.4775199890000010  0.7826300259999996
  0.4818649890000017  0.9999960060000035  0.1297039990000002
  0.4642280039999989  0.1576250049999999  0.2188429979999995
  0.3253139850000011  0.0088089999999994  0.2202959950000007
  0.5045189860000008  0.9847379919999995  0.3642880020000021
  0.5224800109999990  0.8350880149999966  0.2826299970000008
  0.6526079770000024  0.9728199839999974  0.2809000020000028
  0.0049649999999986  0.5009019969999997  0.3399380150000013
  0.0045530000000014  0.6264420150000021  0.2283180060000021
  0.1394380030000022  0.4736070040000016  0.2349209930000029
  0.9294869900000009  0.4106779990000007  0.1193709969999972
  0.9258210059999996  0.2951050100000003  0.2233729960000019
  0.8021389840000026  0.4404180049999979  0.2153719960000018
  0.0008780000000002  0.9830110070000018  0.9895840289999995
  0.4989059870000006  0.4911429880000000  0.9903669950000022
  0.0169890000000024  0.9991220240000018  0.4895839989999970
  0.5088570120000000  0.5010939840000006  0.4903660120000026
  0.4456639890000034  0.0355029999999985  0.2084410040000009
  0.4904020130000006  0.9761679770000029  0.7549099920000018
  0.0238320010000024  0.5095980170000018  0.2549099920000018
  0.9644970299999969  0.5543360109999966  0.7084410189999986
  0.2052689940000008  0.2820110019999973  0.0201819999999984
  0.7060710189999995  0.1954240049999996  0.9817519779999984
  0.2909890119999972  0.7794200180000033  0.9782779809999980
  0.8154919739999968  0.6714010239999979  0.9757980110000020
  0.3285990059999975  0.1845079960000007  0.4757980110000020
  0.2205799970000015  0.7090110179999982  0.4782780110000004
  0.8045759800000027  0.2939279969999973  0.4817520080000008
  0.7179890279999981  0.7947310209999969  0.5201820139999995
  0.9479500059999992  0.9914500120000014  0.2409079970000008
  0.5282239909999973  0.5399839880000030  0.2407999930000031
  0.0085499999999996  0.0520499980000011  0.7409080270000032
  0.4600160119999970  0.4717760090000027  0.7408000229999985
  0.5367349980000000  0.9520609969999967  0.2889060079999979
  0.5922449830000005  0.0861610030000008  0.7001209860000017
  0.9138389829999980  0.4077549869999970  0.2001210000000029
  0.0479389990000030  0.4632650020000000  0.7889059780000025
 
  0.00000000E+00  0.00000000E+00  0.00000000E+00
  0.00000000E+00  0.00000000E+00  0.00000000E+00
  0.00000000E+00  0.00000000E+00  0.00000000E+00
  0.00000000E+00  0.00000000E+00  0.00000000E+00
  0.00000000E+00  0.00000000E+00  0.00000000E+00
  0.00000000E+00  0.00000000E+00  0.00000000E+00
  0.00000000E+00  0.00000000E+00  0.00000000E+00
  0.00000000E+00  0.00000000E+00  0.00000000E+00
  0.00000000E+00  0.00000000E+00  0.00000000E+00
  0.00000000E+00  0.00000000E+00  0.00000000E+00
  0.00000000E+00  0.00000000E+00  0.00000000E+00
  0.00000000E+00  0.00000000E+00  0.00000000E+00
  0.00000000E+00  0.00000000E+00  0.00000000E+00
  0.00000000E+00  0.00000000E+00  0.00000000E+00
  0.00000000E+00  0.00000000E+00  0.00000000E+00
  0.00000000E+00  0.00000000E+00  0.00000000E+00
  0.00000000E+00  0.00000000E+00  0.00000000E+00
  0.00000000E+00  0.00000000E+00  0.00000000E+00
  0.00000000E+00  0.00000000E+00  0.00000000E+00
  0.00000000E+00  0.00000000E+00  0.00000000E+00
  0.00000000E+00  0.00000000E+00  0.00000000E+00
  0.00000000E+00  0.00000000E+00  0.00000000E+00
  0.00000000E+00  0.00000000E+00  0.00000000E+00
  0.00000000E+00  0.00000000E+00  0.00000000E+00
  0.00000000E+00  0.00000000E+00  0.00000000E+00
  0.00000000E+00  0.00000000E+00  0.00000000E+00
  0.00000000E+00  0.00000000E+00  0.00000000E+00
  0.00000000E+00  0.00000000E+00  0.00000000E+00
  0.00000000E+00  0.00000000E+00  0.00000000E+00
  0.00000000E+00  0.00000000E+00  0.00000000E+00
  0.00000000E+00  0.00000000E+00  0.00000000E+00
  0.00000000E+00  0.00000000E+00  0.00000000E+00
  0.00000000E+00  0.00000000E+00  0.00000000E+00
  0.00000000E+00  0.00000000E+00  0.00000000E+00
  0.00000000E+00  0.00000000E+00  0.00000000E+00
  0.00000000E+00  0.00000000E+00  0.00000000E+00
  0.00000000E+00  0.00000000E+00  0.00000000E+00
  0.00000000E+00  0.00000000E+00  0.00000000E+00
  0.00000000E+00  0.00000000E+00  0.00000000E+00
  0.00000000E+00  0.00000000E+00  0.00000000E+00
  0.00000000E+00  0.00000000E+00  0.00000000E+00
  0.00000000E+00  0.00000000E+00  0.00000000E+00
  0.00000000E+00  0.00000000E+00  0.00000000E+00
  0.00000000E+00  0.00000000E+00  0.00000000E+00
  0.00000000E+00  0.00000000E+00  0.00000000E+00
  0.00000000E+00  0.00000000E+00  0.00000000E+00
  0.00000000E+00  0.00000000E+00  0.00000000E+00
  0.00000000E+00  0.00000000E+00  0.00000000E+00
