CH3PbI3 tetragonal                      
1.0
        8.8009004593         0.0000000000         0.0000000000
        0.0000000000         8.8009004593         0.0000000000
        0.0000000000         0.0000000000        12.6857004166
    H   Pb    C    I    N
   24    4    4   12    4
Direct
     0.481805086         0.975812674         0.847397864
     0.490871042         0.841233969         0.741044223
     0.343659490         0.981961846         0.743402183
     0.546502531         0.050959527         0.622516632
     0.536725223         0.177219152         0.720853865
     0.675970614         0.046868678         0.718968332
     0.970441401         0.530073464         0.626730442
     0.981173754         0.665842533         0.732053697
     0.835116386         0.524016142         0.732486963
     0.044122200         0.457702875         0.851428866
     0.030484658         0.330175638         0.754857361
     0.168775961         0.460868984         0.752637446
     0.469926476         0.029558510         0.126730382
     0.475983828         0.164883628         0.232486993
     0.334157407         0.018826270         0.232053742
     0.542297065         0.955877781         0.351428777
     0.539130926         0.831224144         0.252637446
     0.669824302         0.969515324         0.254857361
     0.024187468         0.518194973         0.347397894
     0.018038170         0.656340539         0.243402109
     0.158766016         0.509128869         0.241044149
     0.949040473         0.453497440         0.122516543
     0.953131318         0.324029297         0.218968332
     0.822780848         0.463274807         0.220853880
     0.000760436         0.988338709         0.990189552
     0.503863692         0.493136108         0.990693033
     0.011661281         0.999239564         0.490189552
     0.506863892         0.496136338         0.490693033
     0.451360643         0.047018662         0.211050808
     0.462428868         0.958060145         0.763152957
     0.041939925         0.537571132         0.263152987
     0.952981353         0.548639357         0.711050808
     0.201436415         0.291128546         0.014217041
     0.700702190         0.191471368         0.982014656
     0.288077086         0.777883887         0.000671170
     0.817100167         0.674465656         0.976723909
     0.325534314         0.182899833         0.476723880
     0.222116128         0.711922884         0.500671148
     0.808528662         0.299297780         0.482014626
     0.708871424         0.798563600         0.514217019
     0.961413741         0.013250086         0.239772320
     0.536702812         0.533516586         0.241560414
     0.986749887         0.038586255         0.739772320
     0.466483384         0.463297188         0.741560400
     0.556025386         0.945459068         0.270689428
     0.561650991         0.064430334         0.702887118
     0.935569644         0.438349009         0.202887103
     0.054541007         0.443974614         0.770689428

