MAPbI3 tdos

ISMEAR=0
SIGMA=0.03
IBRION=0
NSW=0
PREC=ACCURATE
LREAL=Auto
GGA=PE


NUPDOWN=      0
LSORBIT =     T

LORBIT=11
LMAXMIX=4
#LCHARG=.FALSE.
#LWAVE= .FALSE.
EDIFF=0.00001
EDIFFG=-0.01
EMIN   =  -25.00;   EMAX   =10.00
NEDOS  = 2401

KPAR=8
NPAR=18
